language ESSENCE' 1.0
letting AssignmentMatrix be [[0, 1, 0, 1, 1, 1, 0, 1, 0, 0, 1, 0, 1, 0, 0], 
[0, 0, 1, 0, 0, 0, 1, 0, 0, 0, 0, 1, 1, 0, 1], 
[1, 0, 0, 0, 0, 0, 0, 0, 0, 0, 0, 0, 0, 0, 0], 
[0, 0, 0, 0, 0, 0, 0, 0, 0, 0, 0, 0, 0, 0, 0], 
[0, 0, 0, 0, 0, 0, 0, 0, 1, 1, 0, 0, 0, 0, 0]]
letting CPU be [4, 2, 2, 2, 2, 2, 2, 2, 4, 4, 2, 2, 4, 63, 2]
letting Memory be [7500, 3750, 3750, 3750, 3750, 3750, 3750, 3750, 7500, 7500, 3750, 3750, 15000, 488008, 3750]
letting Price be [210, 116, 116, 116, 116, 126, 116, 116, 210, 230, 116, 116, 350, 3, 141]
letting Storage be [2000, 2000, 2000, 2000, 2000, 2000, 2000, 2000, 2000, 2000, 2000, 2000, 4000, 12008, 2000]
letting VMType be [341, 433, 433, 433, 433, 477, 433, 433, 341, 399, 433, 433, 316, 1, 450]
